NAME : portcgen-15-32
COMMENT : portcgen N=15, seed=32
TYPE : TSP
DIMENSION : 15
EDGE_WEIGHT_TYPE : EUC_2D
NODE_COORD_SECTION
1 -157314 -486026
2 -17554 -42420
3 -110546 316170
4 259867 -165325
5 -84337 -222170
6 -26372 -220440
7 -81656 194955
8 -8214 82490
9 39229 253066
10 -428028 -66489
11 -341478 59793
12 609696 -256654
13 -357155 39080
14 103983 -147932
15 -128096 -217087
